90 450

31 5
61 49
44 3
52 12
44 30
72 19
91 20
38 10
23 32
40 30
70 26
47 42
38 14
56 10
48 18
39 22
83 27
27 29
29 45
87 15
30 9
48 3
64 37
25 16
94 21
45 29
60 34
89 24
64 13
28 41
53 23
97 1
54 19
14 43
29 5
38 44
49 44
57 9
38 36
68 37
63 10
78 38
95 16
75 20
79 3
45 38
99 36
24 50
67 47
26 11
53 20
12 34
86 26
85 31
62 8
23 8
48 24
72 43
47 14
41 13
77 19
46 34
41 11
68 10
43 41
90 20
76 8
94 39
72 45
18 21
92 20
50 33
60 15
72 25
84 47
90 12
61 37
63 26
82 48
86 2
66 18
26 50
41 34
53 17
67 21
99 50
52 3
81 29
93 38
77 37
